(declare-const a Real)
(declare-const b Real)
(declare-const c Real)
(assert (= (* a b c) 1))
(assert (> a 0))
(assert (> b 0))
(assert (> c 0))
(assert (not (<= (+ (* (pow a (/ 5 3)) (pow (* b c) (/ 2 3))) (* (pow a (pow 3 -1)) (pow (* b c) (/ 4 3))) (* (pow b (/ 5 3)) (pow (* a c) (/ 2 3))) (* (pow b (pow 3 -1)) (pow (* a c) (/ 4 3))) (* (pow c (pow 3 -1)) (pow (* a b) (/ 4 3))) (* -1 a (pow c 2)) (* -1 b (pow a 2)) (* -1 c (pow b 2)) (* (pow b (/ 2 3)) (pow (+ (* 7 (pow 3 -1)) 4) (/ -19 3)) (pow (+ 4 (* (/ 2 3) a) (* (/ 5 3) c)) (/ 19 3))) (* -3 a b c)) 0)))
(check-sat)
(get-model)
(exit)